p cnf 505 1415
a 1 2 3 4 5 6 7 8 9 10 11 12 13 14 15 16 17 19 20 21 22 23 24 25 26 27 28 29 30 31 32 33 34 35 36 37 38 42 43 44 45 46 47 48 49 50 51 52 53 54 55 56 57 58 59 60 61 62 0
e 18 39 40 41 63 64 65 66 67 68 69 70 71 72 73 74 75 76 77 78 79 80 81 82 83 84 85 86 87 88 89 90 91 92 93 94 95 96 97 98 99 100 101 102 103 104 105 106 107 108 109 110 111 112 113 114 115 116 117 118 119 120 121 122 123 124 125 126 127 128 129 130 131 132 133 134 135 136 137 138 139 140 141 142 143 144 145 146 147 148 149 150 151 152 153 154 155 156 157 158 159 160 161 162 163 164 165 166 167 168 169 170 171 172 173 174 175 176 177 178 179 180 181 182 183 184 185 186 187 188 189 190 191 192 193 194 195 196 197 198 199 200 201 202 203 204 205 206 207 208 209 210 211 212 213 214 215 216 217 218 219 220 221 222 223 224 225 226 227 228 229 230 231 232 233 234 235 236 237 238 239 240 241 242 243 244 245 246 247 248 249 250 251 252 253 254 255 256 257 258 259 260 261 262 263 264 265 266 267 268 269 270 271 272 273 274 275 276 277 278 279 280 281 282 283 284 285 286 287 288 289 290 291 292 293 294 295 296 297 298 299 300 301 302 303 304 305 306 307 308 309 310 311 312 313 314 315 316 317 318 319 320 321 322 323 324 325 326 327 328 329 330 331 332 333 334 335 336 337 338 339 340 341 342 343 344 345 346 347 348 349 350 351 352 353 354 355 356 357 358 359 360 361 362 363 364 365 366 367 368 369 370 371 372 373 374 375 376 377 378 379 380 381 382 383 384 385 386 387 388 389 390 391 392 393 394 395 396 397 398 399 400 401 402 403 404 405 406 407 408 409 410 411 412 413 414 415 416 417 418 419 420 421 422 423 424 425 426 427 428 429 430 431 432 433 434 435 436 437 438 439 440 441 442 443 444 445 446 447 448 449 450 451 452 453 454 455 456 457 458 459 460 461 462 463 464 465 466 467 468 469 470 471 472 473 474 475 476 477 478 479 480 481 482 483 484 485 486 487 488 489 490 491 492 493 494 495 496 497 498 499 500 501 502 503 504 505 0
-505 0
505 -411 0
505 -460 0
505 -489 0
505 -504 0
4 3 2 -410 -503 504 0
503 -495 0
503 -502 0
18 39 40 41 -501 502 0
501 -500 0
501 -406 0
501 -456 0
501 -485 0
-255 -254 -253 -252 -499 500 0
499 -496 0
499 -497 0
499 -498 0
30 35 36 53 49 62 59 -280 -279 -269 -268 498 0
21 27 26 61 52 46 58 -277 -276 -263 -262 497 0
17 16 11 51 43 60 57 -274 -273 -258 -257 496 0
-472 -433 -234 -494 -216 495 0
494 -493 0
494 -79 0
494 -80 0
494 -81 0
494 -82 0
-492 -491 -490 493 0
492 -95 0
492 -96 0
492 -106 0
492 -107 0
492 -62 0
492 -59 0
492 -53 0
492 -49 0
492 -36 0
492 -35 0
492 -30 0
491 -89 0
491 -90 0
491 -103 0
491 -104 0
491 -61 0
491 -58 0
491 -52 0
491 -46 0
491 -27 0
491 -26 0
491 -21 0
490 -84 0
490 -85 0
490 -100 0
490 -101 0
490 -60 0
490 -57 0
490 -51 0
490 -43 0
490 -17 0
490 -16 0
490 -11 0
3 2 1 -410 -488 489 0
488 -473 0
488 -487 0
18 39 40 41 -486 487 0
486 -478 0
486 -388 0
486 -448 0
486 -485 0
-484 -481 485 0
484 -482 0
484 -483 0
484 -379 0
484 -380 0
484 -381 0
-255 -254 -253 -252 -282 -444 483 0
-255 -254 -253 -252 -325 -377 482 0
481 -389 0
481 -390 0
481 -479 0
481 -480 0
481 -391 0
-255 -254 -253 -252 -397 -293 480 0
-255 -254 -253 -252 -450 -308 479 0
-255 -254 -253 -252 -477 478 0
477 -474 0
477 -475 0
477 -476 0
32 31 30 33 35 36 34 -270 -318 -317 -267 476 0
25 24 23 22 21 27 26 -265 -264 -315 -314 475 0
13 17 16 15 14 12 11 -260 -312 -259 -311 474 0
-472 -216 -425 -215 -465 473 0
472 -468 0
472 -471 0
-208 -207 -206 -470 -469 471 0
470 -421 0
470 -109 0
470 -79 0
470 -80 0
470 -81 0
470 -82 0
469 -204 0
469 -152 0
469 -79 0
469 -80 0
469 -81 0
469 -82 0
-219 -467 -466 -218 -217 468 0
467 -120 0
467 -225 0
467 -79 0
467 -80 0
467 -81 0
467 -82 0
466 -135 0
466 -427 0
466 -79 0
466 -80 0
466 -81 0
466 -82 0
465 -464 0
465 -79 0
465 -80 0
465 -81 0
465 -82 0
-463 -462 -461 464 0
463 -94 0
463 -144 0
463 -145 0
463 -97 0
463 -36 0
463 -35 0
463 -34 0
463 -33 0
463 -32 0
463 -31 0
463 -30 0
462 -141 0
462 -142 0
462 -91 0
462 -92 0
462 -27 0
462 -26 0
462 -25 0
462 -24 0
462 -23 0
462 -22 0
462 -21 0
461 -138 0
461 -86 0
461 -139 0
461 -87 0
461 -17 0
461 -16 0
461 -15 0
461 -14 0
461 -13 0
461 -12 0
461 -11 0
4 2 1 -410 -459 460 0
459 -434 0
459 -458 0
18 39 40 41 -457 458 0
457 -439 0
457 -369 0
457 -448 0
457 -456 0
-455 -452 456 0
455 -347 0
455 -348 0
455 -453 0
455 -454 0
455 -349 0
-255 -254 -253 -252 -330 -359 454 0
-255 -254 -253 -252 -282 -440 453 0
452 -449 0
452 -451 0
452 -394 0
452 -395 0
452 -396 0
-255 -254 -253 -252 -303 -450 451 0
450 -399 0
450 -400 0
450 -401 0
-255 -254 -253 -252 -320 -392 449 0
-447 -443 448 0
447 -445 0
447 -446 0
447 -374 0
447 -375 0
447 -376 0
-255 -254 -253 -252 -382 -337 446 0
-255 -254 -253 -252 -444 -303 445 0
444 -384 0
444 -385 0
444 -386 0
443 -441 0
443 -442 0
443 -356 0
443 -357 0
443 -358 0
-255 -254 -253 -252 -272 -350 442 0
-255 -254 -253 -252 -308 -440 441 0
440 -365 0
440 -366 0
440 -367 0
-255 -254 -253 -252 -438 439 0
438 -435 0
438 -436 0
438 -437 0
30 33 35 36 34 53 49 -301 -300 -291 -290 437 0
25 24 21 27 26 52 46 -298 -297 -288 -287 436 0
17 16 15 14 11 51 43 -295 -294 -285 -284 435 0
-433 -216 -425 -196 -416 434 0
433 -429 0
433 -432 0
-176 -431 -430 -175 -174 432 0
431 -186 0
431 -157 0
431 -79 0
431 -80 0
431 -81 0
431 -82 0
430 -417 0
430 -109 0
430 -79 0
430 -80 0
430 -81 0
430 -82 0
-224 -223 -222 -428 -426 429 0
428 -427 0
428 -130 0
428 -79 0
428 -80 0
428 -81 0
428 -82 0
-229 -228 -227 427 0
426 -220 0
426 -147 0
426 -79 0
426 -80 0
426 -81 0
426 -82 0
425 -420 0
425 -424 0
-203 -202 -201 -423 -422 424 0
423 -164 0
423 -209 0
423 -79 0
423 -80 0
423 -81 0
423 -82 0
422 -130 0
422 -421 0
422 -79 0
422 -80 0
422 -81 0
422 -82 0
-213 -212 -211 421 0
-185 -184 -183 -419 -418 420 0
419 -177 0
419 -99 0
419 -79 0
419 -80 0
419 -81 0
419 -82 0
418 -417 0
418 -135 0
418 -79 0
418 -80 0
418 -81 0
418 -82 0
-194 -193 -192 417 0
416 -415 0
416 -79 0
416 -80 0
416 -81 0
416 -82 0
-414 -413 -412 415 0
414 -117 0
414 -118 0
414 -127 0
414 -128 0
414 -53 0
414 -49 0
414 -36 0
414 -35 0
414 -34 0
414 -33 0
414 -30 0
413 -114 0
413 -115 0
413 -124 0
413 -125 0
413 -52 0
413 -46 0
413 -27 0
413 -26 0
413 -25 0
413 -24 0
413 -21 0
412 -111 0
412 -112 0
412 -121 0
412 -122 0
412 -51 0
412 -43 0
412 -17 0
412 -16 0
412 -15 0
412 -14 0
412 -11 0
4 3 1 -410 -409 411 0
410 -4 0
410 -3 0
410 -2 0
410 -1 0
409 -235 0
409 -408 0
18 39 40 41 -407 408 0
407 -256 0
407 -369 0
407 -388 0
407 -406 0
-405 -402 406 0
405 -403 0
405 -404 0
405 -326 0
405 -331 0
405 -332 0
-255 -254 -253 -252 -325 -370 404 0
-255 -254 -253 -252 -330 -310 403 0
402 -393 0
402 -398 0
402 -399 0
402 -400 0
402 -401 0
-255 -254 -253 -252 -354 401 0
-255 -254 -253 -252 -363 -272 400 0
-255 -254 -253 -252 -346 -337 399 0
-255 -254 -253 -252 -346 -397 398 0
397 -394 0
397 -395 0
397 -396 0
-255 -254 -253 -252 -337 396 0
-255 -254 -253 -252 -320 -272 395 0
-255 -254 -253 -252 -354 -303 394 0
-255 -254 -253 -252 -363 -392 393 0
392 -389 0
392 -390 0
392 -391 0
-255 -254 -253 -252 -272 391 0
-255 -254 -253 -252 -337 -293 390 0
-255 -254 -253 -252 -354 -308 389 0
-387 -373 388 0
387 -378 0
387 -383 0
387 -384 0
387 -385 0
387 -386 0
-255 -254 -253 -252 -363 386 0
-255 -254 -253 -252 -330 -354 385 0
-255 -254 -253 -252 -320 -346 384 0
-255 -254 -253 -252 -382 -354 383 0
382 -379 0
382 -380 0
382 -381 0
-255 -254 -253 -252 -330 381 0
-255 -254 -253 -252 -320 -325 380 0
-255 -254 -253 -252 -282 -363 379 0
-255 -254 -253 -252 -346 -377 378 0
377 -374 0
377 -375 0
377 -376 0
-255 -254 -253 -252 -320 376 0
-255 -254 -253 -252 -363 -303 375 0
-255 -254 -253 -252 -330 -337 374 0
373 -371 0
373 -372 0
373 -283 0
373 -304 0
373 -309 0
-255 -254 -253 -252 -272 -333 372 0
-255 -254 -253 -252 -293 -370 371 0
370 -339 0
370 -340 0
370 -341 0
-368 -342 369 0
368 -355 0
368 -364 0
368 -365 0
368 -366 0
368 -367 0
-255 -254 -253 -252 -346 367 0
-255 -254 -253 -252 -363 -293 366 0
-255 -254 -253 -252 -325 -354 365 0
-255 -254 -253 -252 -363 -359 364 0
363 -360 0
363 -361 0
363 -362 0
32 33 35 36 34 53 48 -318 -317 -247 -246 362 0
25 24 23 27 26 52 45 -244 -243 -315 -314 361 0
13 17 16 15 14 51 42 -312 -238 -237 -311 360 0
359 -356 0
359 -357 0
359 -358 0
-255 -254 -253 -252 -293 358 0
-255 -254 -253 -252 -325 -272 357 0
-255 -254 -253 -252 -346 -308 356 0
-255 -254 -253 -252 -354 -350 355 0
354 -351 0
354 -352 0
354 -353 0
33 36 53 50 49 48 59 -247 -246 -269 -268 353 0
24 27 52 46 45 58 47 -244 -243 -263 -262 352 0
17 14 51 43 57 44 42 -238 -237 -258 -257 351 0
350 -347 0
350 -348 0
350 -349 0
-255 -254 -253 -252 -325 349 0
-255 -254 -253 -252 -330 -293 348 0
-255 -254 -253 -252 -282 -346 347 0
346 -343 0
346 -344 0
346 -345 0
33 35 34 53 56 49 48 -291 -290 -247 -246 345 0
25 24 26 55 52 46 45 -244 -243 -288 -287 344 0
16 15 14 54 51 43 42 -238 -237 -285 -284 343 0
342 -321 0
342 -338 0
342 -339 0
342 -340 0
342 -341 0
-255 -254 -253 -252 -303 341 0
-255 -254 -253 -252 -320 -308 340 0
-255 -254 -253 -252 -282 -337 339 0
-255 -254 -253 -252 -337 -333 338 0
337 -334 0
337 -335 0
337 -336 0
33 35 36 53 49 48 59 -301 -300 -269 -268 336 0
24 27 26 52 46 45 58 -298 -297 -263 -262 335 0
17 16 14 51 43 57 42 -295 -294 -258 -257 334 0
333 -326 0
333 -331 0
333 -332 0
-255 -254 -253 -252 -282 332 0
-255 -254 -253 -252 -330 -308 331 0
330 -327 0
330 -328 0
330 -329 0
32 35 36 34 53 48 62 -280 -279 -318 -317 329 0
25 23 27 26 61 52 45 -277 -276 -315 -314 328 0
13 17 16 15 51 60 42 -274 -273 -312 -311 327 0
-255 -254 -253 -252 -325 -303 326 0
325 -322 0
325 -323 0
325 -324 0
35 36 34 53 49 48 62 -280 -279 -291 -290 324 0
25 27 26 61 52 46 45 -277 -276 -288 -287 323 0
17 16 15 51 43 60 42 -274 -273 -285 -284 322 0
-255 -254 -253 -252 -320 -310 321 0
320 -313 0
320 -316 0
320 -319 0
32 33 35 34 53 56 48 -318 -317 -301 -300 319 0
318 38 0
318 18 0
317 37 0
317 -18 0
25 24 23 26 55 52 45 -298 -297 -315 -314 316 0
315 29 0
315 18 0
314 28 0
314 -18 0
13 16 15 14 54 51 42 -312 -295 -294 -311 313 0
312 19 0
312 -18 0
311 18 0
311 20 0
310 -283 0
310 -304 0
310 -309 0
-255 -254 -253 -252 -308 309 0
308 -305 0
308 -306 0
308 -307 0
31 33 35 36 34 49 48 -270 -249 -248 -267 307 0
25 24 22 27 26 46 45 -265 -264 -242 -241 306 0
17 16 15 14 12 43 42 -260 -239 -259 -236 305 0
-255 -254 -253 -252 -303 -293 304 0
303 -296 0
303 -299 0
303 -302 0
33 36 34 53 50 49 48 -301 -300 -249 -248 302 0
301 39 0
301 10 0
300 7 0
300 -39 0
25 24 27 52 46 45 47 -298 -297 -242 -241 299 0
298 6 0
298 -39 0
297 39 0
297 8 0
17 15 14 51 43 44 42 -239 -295 -294 -236 296 0
295 39 0
295 9 0
294 5 0
294 -39 0
293 -286 0
293 -289 0
293 -292 0
31 33 36 34 50 49 48 -270 -291 -290 -267 292 0
291 38 0
291 39 0
290 37 0
290 -39 0
25 24 22 27 46 45 47 -265 -264 -288 -287 289 0
288 39 0
288 29 0
287 28 0
287 -39 0
17 15 14 12 43 44 42 -260 -259 -285 -284 286 0
285 39 0
285 20 0
284 19 0
284 -39 0
-255 -254 -253 -252 -282 -272 283 0
282 -275 0
282 -278 0
282 -281 0
35 34 53 56 49 48 62 -280 -279 -249 -248 281 0
280 41 0
280 10 0
279 -41 0
279 7 0
25 26 55 61 52 46 45 -277 -276 -242 -241 278 0
277 -41 0
277 6 0
276 41 0
276 8 0
16 15 54 51 43 60 42 -274 -273 -239 -236 275 0
274 41 0
274 9 0
273 -41 0
273 5 0
272 -261 0
272 -266 0
272 -271 0
31 33 35 36 49 48 59 -270 -269 -268 -267 271 0
270 10 0
270 18 0
269 41 0
269 38 0
268 -41 0
268 37 0
267 7 0
267 -18 0
24 22 27 26 46 45 58 -265 -264 -263 -262 266 0
265 6 0
265 -18 0
264 8 0
264 18 0
263 41 0
263 29 0
262 -41 0
262 28 0
17 16 14 12 43 57 42 -260 -259 -258 -257 261 0
260 18 0
260 9 0
259 5 0
259 -18 0
258 41 0
258 20 0
257 -41 0
257 19 0
-255 -254 -253 -252 -251 256 0
255 6 0
255 -5 0
254 9 0
254 -8 0
253 7 0
253 -6 0
252 8 0
252 -10 0
251 -240 0
251 -245 0
251 -250 0
30 33 35 36 34 53 49 -249 -248 -247 -246 250 0
249 40 0
249 38 0
248 -40 0
248 37 0
247 40 0
247 10 0
246 -40 0
246 7 0
25 24 21 27 26 52 46 -244 -243 -242 -241 245 0
244 -40 0
244 6 0
243 40 0
243 8 0
242 40 0
242 29 0
241 -40 0
241 28 0
17 16 15 14 11 51 43 -239 -238 -237 -236 240 0
239 40 0
239 20 0
238 40 0
238 9 0
237 -40 0
237 5 0
236 -40 0
236 19 0
-234 -216 -215 -196 -83 235 0
234 -230 0
234 -233 0
-159 -158 -153 -232 -231 233 0
232 -197 0
232 -152 0
232 -79 0
232 -80 0
232 -81 0
232 -82 0
231 -137 0
231 -157 0
231 -79 0
231 -80 0
231 -81 0
231 -82 0
-229 -228 -227 -226 -221 230 0
229 -181 0
229 -79 0
229 -80 0
229 -81 0
229 -82 0
228 -99 0
228 -190 0
228 -79 0
228 -80 0
228 -81 0
228 -82 0
227 -164 0
227 -173 0
227 -79 0
227 -80 0
227 -81 0
227 -82 0
226 -225 0
226 -173 0
226 -79 0
226 -80 0
226 -81 0
226 -82 0
-224 -223 -222 225 0
224 -164 0
224 -79 0
224 -80 0
224 -81 0
224 -82 0
223 -99 0
223 -147 0
223 -79 0
223 -80 0
223 -81 0
223 -82 0
222 -130 0
222 -181 0
222 -79 0
222 -80 0
222 -81 0
222 -82 0
221 -220 0
221 -190 0
221 -79 0
221 -80 0
221 -81 0
221 -82 0
-219 -218 -217 220 0
219 -99 0
219 -79 0
219 -80 0
219 -81 0
219 -82 0
218 -120 0
218 -164 0
218 -79 0
218 -80 0
218 -81 0
218 -82 0
217 -135 0
217 -181 0
217 -79 0
217 -80 0
217 -81 0
217 -82 0
216 -41 0
216 -40 0
216 -39 0
216 -18 0
215 -200 0
215 -214 0
-213 -212 -211 -210 -205 214 0
213 -190 0
213 -79 0
213 -80 0
213 -81 0
213 -82 0
212 -181 0
212 -157 0
212 -79 0
212 -80 0
212 -81 0
212 -82 0
211 -173 0
211 -147 0
211 -79 0
211 -80 0
211 -81 0
211 -82 0
210 -181 0
210 -209 0
210 -79 0
210 -80 0
210 -81 0
210 -82 0
-208 -207 -206 209 0
208 -157 0
208 -79 0
208 -80 0
208 -81 0
208 -82 0
207 -152 0
207 -147 0
207 -79 0
207 -80 0
207 -81 0
207 -82 0
206 -190 0
206 -109 0
206 -79 0
206 -80 0
206 -81 0
206 -82 0
205 -204 0
205 -173 0
205 -79 0
205 -80 0
205 -81 0
205 -82 0
-203 -202 -201 204 0
203 -147 0
203 -79 0
203 -80 0
203 -81 0
203 -82 0
202 -130 0
202 -190 0
202 -79 0
202 -80 0
202 -81 0
202 -82 0
201 -164 0
201 -157 0
201 -79 0
201 -80 0
201 -81 0
201 -82 0
-136 -131 -110 -199 -198 200 0
199 -160 0
199 -99 0
199 -79 0
199 -80 0
199 -81 0
199 -82 0
198 -197 0
198 -120 0
198 -79 0
198 -80 0
198 -81 0
198 -82 0
-168 -167 -166 197 0
196 -169 0
196 -195 0
-194 -193 -192 -191 -182 195 0
194 -173 0
194 -79 0
194 -80 0
194 -81 0
194 -82 0
193 -120 0
193 -190 0
193 -79 0
193 -80 0
193 -81 0
193 -82 0
192 -181 0
192 -152 0
192 -79 0
192 -80 0
192 -81 0
192 -82 0
191 -186 0
191 -190 0
191 -79 0
191 -80 0
191 -81 0
191 -82 0
-189 -188 -187 190 0
189 -73 0
189 -74 0
189 -144 0
189 -145 0
189 -53 0
189 -48 0
189 -36 0
189 -35 0
189 -34 0
189 -33 0
189 -32 0
188 -141 0
188 -142 0
188 -70 0
188 -71 0
188 -52 0
188 -45 0
188 -27 0
188 -26 0
188 -25 0
188 -24 0
188 -23 0
187 -138 0
187 -64 0
187 -65 0
187 -139 0
187 -51 0
187 -42 0
187 -17 0
187 -16 0
187 -15 0
187 -14 0
187 -13 0
-185 -184 -183 186 0
185 -120 0
185 -79 0
185 -80 0
185 -81 0
185 -82 0
184 -99 0
184 -152 0
184 -79 0
184 -80 0
184 -81 0
184 -82 0
183 -135 0
183 -173 0
183 -79 0
183 -80 0
183 -81 0
183 -82 0
182 -177 0
182 -181 0
182 -79 0
182 -80 0
182 -81 0
182 -82 0
-180 -179 -178 181 0
180 -95 0
180 -96 0
180 -73 0
180 -74 0
180 -59 0
180 -53 0
180 -50 0
180 -49 0
180 -48 0
180 -36 0
180 -33 0
179 -89 0
179 -90 0
179 -70 0
179 -71 0
179 -58 0
179 -52 0
179 -47 0
179 -46 0
179 -45 0
179 -27 0
179 -24 0
178 -84 0
178 -85 0
178 -64 0
178 -65 0
178 -57 0
178 -51 0
178 -44 0
178 -43 0
178 -42 0
178 -17 0
178 -14 0
-176 -175 -174 177 0
176 -152 0
176 -79 0
176 -80 0
176 -81 0
176 -82 0
175 -120 0
175 -157 0
175 -79 0
175 -80 0
175 -81 0
175 -82 0
174 -173 0
174 -109 0
174 -79 0
174 -80 0
174 -81 0
174 -82 0
-172 -171 -170 173 0
172 -73 0
172 -74 0
172 -117 0
172 -118 0
172 -56 0
172 -53 0
172 -49 0
172 -48 0
172 -35 0
172 -34 0
172 -33 0
171 -114 0
171 -115 0
171 -70 0
171 -71 0
171 -55 0
171 -52 0
171 -46 0
171 -45 0
171 -26 0
171 -25 0
171 -24 0
170 -111 0
170 -112 0
170 -64 0
170 -65 0
170 -54 0
170 -51 0
170 -43 0
170 -42 0
170 -16 0
170 -15 0
170 -14 0
-168 -167 -166 -165 -148 169 0
168 -130 0
168 -79 0
168 -80 0
168 -81 0
168 -82 0
167 -135 0
167 -147 0
167 -79 0
167 -80 0
167 -81 0
167 -82 0
166 -164 0
166 -109 0
166 -79 0
166 -80 0
166 -81 0
166 -82 0
165 -160 0
165 -164 0
165 -79 0
165 -80 0
165 -81 0
165 -82 0
-163 -162 -161 164 0
163 -95 0
163 -96 0
163 -127 0
163 -128 0
163 -59 0
163 -53 0
163 -49 0
163 -48 0
163 -36 0
163 -35 0
163 -33 0
162 -89 0
162 -90 0
162 -124 0
162 -125 0
162 -58 0
162 -52 0
162 -46 0
162 -45 0
162 -27 0
162 -26 0
162 -24 0
161 -84 0
161 -85 0
161 -121 0
161 -122 0
161 -57 0
161 -51 0
161 -43 0
161 -42 0
161 -17 0
161 -16 0
161 -14 0
-159 -158 -153 160 0
159 -109 0
159 -79 0
159 -80 0
159 -81 0
159 -82 0
158 -135 0
158 -157 0
158 -79 0
158 -80 0
158 -81 0
158 -82 0
-156 -155 -154 157 0
156 -144 0
156 -145 0
156 -106 0
156 -107 0
156 -62 0
156 -53 0
156 -48 0
156 -36 0
156 -35 0
156 -34 0
156 -32 0
155 -141 0
155 -142 0
155 -103 0
155 -104 0
155 -61 0
155 -52 0
155 -45 0
155 -27 0
155 -26 0
155 -25 0
155 -23 0
154 -138 0
154 -139 0
154 -100 0
154 -101 0
154 -60 0
154 -51 0
154 -42 0
154 -17 0
154 -16 0
154 -15 0
154 -13 0
153 -130 0
153 -152 0
153 -79 0
153 -80 0
153 -81 0
153 -82 0
-151 -150 -149 152 0
151 -117 0
151 -118 0
151 -106 0
151 -107 0
151 -62 0
151 -53 0
151 -49 0
151 -48 0
151 -36 0
151 -35 0
151 -34 0
150 -114 0
150 -115 0
150 -103 0
150 -104 0
150 -61 0
150 -52 0
150 -46 0
150 -45 0
150 -27 0
150 -26 0
150 -25 0
149 -111 0
149 -112 0
149 -100 0
149 -101 0
149 -60 0
149 -51 0
149 -43 0
149 -42 0
149 -17 0
149 -16 0
149 -15 0
148 -137 0
148 -147 0
148 -79 0
148 -80 0
148 -81 0
148 -82 0
-146 -143 -140 147 0
146 -127 0
146 -128 0
146 -144 0
146 -145 0
146 -56 0
146 -53 0
146 -48 0
146 -35 0
146 -34 0
146 -33 0
146 -32 0
-18 -38 145 0
-37 18 144 0
143 -141 0
143 -142 0
143 -124 0
143 -125 0
143 -55 0
143 -52 0
143 -45 0
143 -26 0
143 -25 0
143 -24 0
143 -23 0
-18 -29 142 0
-28 18 141 0
140 -138 0
140 -121 0
140 -122 0
140 -139 0
140 -54 0
140 -51 0
140 -42 0
140 -16 0
140 -15 0
140 -14 0
140 -13 0
-19 18 139 0
-18 -20 138 0
-136 -131 -110 137 0
136 -135 0
136 -79 0
136 -80 0
136 -81 0
136 -82 0
-134 -133 -132 135 0
134 -94 0
134 -75 0
134 -76 0
134 -97 0
134 -49 0
134 -48 0
134 -36 0
134 -35 0
134 -34 0
134 -33 0
134 -31 0
133 -68 0
133 -69 0
133 -91 0
133 -92 0
133 -46 0
133 -45 0
133 -27 0
133 -26 0
133 -25 0
133 -24 0
133 -22 0
132 -63 0
132 -86 0
132 -66 0
132 -87 0
132 -43 0
132 -42 0
132 -17 0
132 -16 0
132 -15 0
132 -14 0
132 -12 0
131 -120 0
131 -130 0
131 -79 0
131 -80 0
131 -81 0
131 -82 0
-129 -126 -123 130 0
129 -75 0
129 -76 0
129 -127 0
129 -128 0
129 -53 0
129 -50 0
129 -49 0
129 -48 0
129 -36 0
129 -34 0
129 -33 0
-10 -39 128 0
-7 39 127 0
126 -68 0
126 -69 0
126 -124 0
126 -125 0
126 -52 0
126 -47 0
126 -46 0
126 -45 0
126 -27 0
126 -25 0
126 -24 0
-6 39 125 0
-8 -39 124 0
123 -63 0
123 -121 0
123 -122 0
123 -66 0
123 -51 0
123 -44 0
123 -43 0
123 -42 0
123 -17 0
123 -15 0
123 -14 0
-9 -39 122 0
-5 39 121 0
-119 -116 -113 120 0
119 -94 0
119 -117 0
119 -118 0
119 -97 0
119 -50 0
119 -49 0
119 -48 0
119 -36 0
119 -34 0
119 -33 0
119 -31 0
-38 -39 118 0
-37 39 117 0
116 -114 0
116 -115 0
116 -91 0
116 -92 0
116 -47 0
116 -46 0
116 -45 0
116 -27 0
116 -25 0
116 -24 0
116 -22 0
-29 -39 115 0
-28 39 114 0
113 -111 0
113 -112 0
113 -86 0
113 -87 0
113 -44 0
113 -43 0
113 -42 0
113 -17 0
113 -15 0
113 -14 0
113 -12 0
-20 -39 112 0
-19 39 111 0
110 -99 0
110 -109 0
110 -79 0
110 -80 0
110 -81 0
110 -82 0
-108 -105 -102 109 0
108 -75 0
108 -76 0
108 -106 0
108 -107 0
108 -62 0
108 -56 0
108 -53 0
108 -49 0
108 -48 0
108 -35 0
108 -34 0
-10 -41 107 0
-7 41 106 0
105 -68 0
105 -69 0
105 -103 0
105 -104 0
105 -61 0
105 -55 0
105 -52 0
105 -46 0
105 -45 0
105 -26 0
105 -25 0
-8 -41 104 0
-6 41 103 0
102 -63 0
102 -66 0
102 -100 0
102 -101 0
102 -60 0
102 -54 0
102 -51 0
102 -43 0
102 -42 0
102 -16 0
102 -15 0
-5 41 101 0
-9 -41 100 0
-98 -93 -88 99 0
98 -94 0
98 -95 0
98 -96 0
98 -97 0
98 -59 0
98 -49 0
98 -48 0
98 -36 0
98 -35 0
98 -33 0
98 -31 0
-10 -18 97 0
-38 -41 96 0
-37 41 95 0
-7 18 94 0
93 -89 0
93 -90 0
93 -91 0
93 -92 0
93 -58 0
93 -46 0
93 -45 0
93 -27 0
93 -26 0
93 -24 0
93 -22 0
-6 18 92 0
-8 -18 91 0
-29 -41 90 0
-28 41 89 0
88 -84 0
88 -85 0
88 -86 0
88 -87 0
88 -57 0
88 -43 0
88 -42 0
88 -17 0
88 -16 0
88 -14 0
88 -12 0
-9 -18 87 0
-5 18 86 0
-20 -41 85 0
-19 41 84 0
83 -78 0
83 -79 0
83 -80 0
83 -81 0
83 -82 0
-6 5 82 0
-9 8 81 0
-7 6 80 0
-8 10 79 0
-77 -72 -67 78 0
77 -73 0
77 -74 0
77 -75 0
77 -76 0
77 -53 0
77 -49 0
77 -36 0
77 -35 0
77 -34 0
77 -33 0
77 -30 0
-38 -40 76 0
-37 40 75 0
-10 -40 74 0
-7 40 73 0
72 -68 0
72 -69 0
72 -70 0
72 -71 0
72 -52 0
72 -46 0
72 -27 0
72 -26 0
72 -25 0
72 -24 0
72 -21 0
-6 40 71 0
-8 -40 70 0
-29 -40 69 0
-28 40 68 0
67 -63 0
67 -64 0
67 -65 0
67 -66 0
67 -51 0
67 -43 0
67 -17 0
67 -16 0
67 -15 0
67 -14 0
67 -11 0
-20 -40 66 0
-9 -40 65 0
-5 40 64 0
-19 40 63 0
